p td 60 90
0 58
0 18
0 42
1 6
1 48
2 41
2 46
2 14
2 51
2 50
2 27
3 21
3 19
4 31
4 37
4 41
4 40
5 7
5 13
5 9
5 56
6 34
6 41
7 34
7 47
7 46
7 42
7 18
8 27
9 41
10 15
10 29
11 47
11 14
11 30
11 32
12 24
12 54
12 53
12 15
13 14
14 58
14 30
15 27
16 24
16 39
17 52
17 33
20 51
20 37
21 35
21 45
21 28
22 27
23 40
26 43
26 46
26 31
26 28
26 29
27 55
28 58
28 33
28 37
30 58
30 48
31 52
32 50
32 49
32 58
33 59
34 39
36 44
37 45
37 41
38 46
40 57
40 50
40 41
41 47
41 53
42 59
43 47
44 46
44 59
45 55
46 49
53 54
54 58
57 59
